32      4       
14      15      13      14      
0       0       0       0       0       3       2       3       4       
3       0       0       1       10      3       5       6       17      
4       0       7       0       7       2       7       19      
3       1       0       0       0       1       30      
5       5       9       0       4       1       10      
6       8       5       9       1       3       8       9       18      
6       0       0       6       9       1       12      
5       6       2       3       1       3       16      26      28      
2       1       0       0       9       2       11      21      
3       2       0       0       0       1       13      
5       0       0       8       0       1       27      
4       8       3       0       0       1       29      
5       10      0       0       4       1       14      
6       0       2       0       0       2       15      24      
4       0       2       0       0       1       29      
3       0       6       0       9       1       19      
1       4       8       0       0       2       22      23      
2       1       9       0       0       1       27      
10      0       8       0       8       3       20      21      24      
4       0       0       0       3       2       23      29      
2       10      0       5       0       1       25      
1       0       4       8       10      3       25      26      28      
9       1       5       0       6       1       27      
10      10      1       6       0       1       31      
3       0       7       7       5       1       31      
10      10      0       0       0       1       31      
7       10      9       0       0       1       30      
7       0       0       6       6       1       30      
10      4       0       0       0       1       32      
1       0       0       6       0       1       32      
5       3       0       1       2       1       32      
0       0       0       0       0       0       